p cnf 464 1371
233 430 0
141 -17 0
141 -294 0
147 -316 0
147 -388 0
148 -165 0
148 -170 0
148 -171 0
153 -17 0
165 -17 0
165 -202 0
166 -165 0
176 -11 0
176 -5 0
176 -6 0
176 -8 0
176 -9 0
178 -125 0
178 -146 0
182 -12 0
195 -158 0
195 -200 0
199 -195 0
201 -447 0
218 -208 0
218 -209 0
218 -217 0
218 -220 0
218 -221 0
218 -222 0
218 -223 0
218 -224 0
218 -237 0
218 -447 0
220 -221 0
220 -222 0
220 -223 0
220 -224 0
226 -237 0
232 -222 0
233 -208 0
233 -209 0
233 -215 0
233 -223 0
233 -224 0
233 -234 0
233 -307 0
233 -308 0
233 -309 0
233 -310 0
233 -328 0
233 -329 0
233 -332 0
233 -333 0
233 -400 0
233 -447 0
238 -144 0
240 -22 0
240 -23 0
240 -3 0
241 -159 0
243 -265 0
29 -129 0
294 -17 0
299 -17 0
30 -22 0
30 -23 0
30 -98 0
30 -99 0
336 -17 0
39 -136 0
414 -415 0
95 -97 0
97 -95 0
-1 -11 0
-1 -176 0
-1 -3 0
-1 -8 0
-1 -9 0
-100 -101 0
-100 -102 0
-100 -103 0
-100 -104 0
-100 -105 0
-100 -106 0
-100 -107 0
-100 -108 0
-100 -109 0
-100 -110 0
-100 -111 0
-100 -112 0
-100 -113 0
-100 -114 0
-100 -115 0
-100 -116 0
-100 -117 0
-100 -118 0
-100 -119 0
-100 -120 0
-100 -129 0
-100 -131 0
-100 -132 0
-100 -133 0
-100 -134 0
-100 -135 0
-100 -136 0
-100 -146 0
-100 -421 0
-100 -98 0
-100 -99 0
-101 -102 0
-101 -103 0
-101 -104 0
-101 -105 0
-101 -106 0
-101 -107 0
-101 -108 0
-101 -109 0
-101 -110 0
-101 -111 0
-101 -112 0
-101 -113 0
-101 -114 0
-101 -115 0
-101 -116 0
-101 -117 0
-101 -118 0
-101 -119 0
-101 -120 0
-101 -129 0
-101 -131 0
-101 -132 0
-101 -133 0
-101 -134 0
-101 -135 0
-101 -136 0
-101 -146 0
-101 -421 0
-101 -98 0
-101 -99 0
-102 -103 0
-102 -104 0
-102 -105 0
-102 -106 0
-102 -107 0
-102 -108 0
-102 -109 0
-102 -110 0
-102 -111 0
-102 -112 0
-102 -113 0
-102 -114 0
-102 -115 0
-102 -116 0
-102 -117 0
-102 -118 0
-102 -119 0
-102 -120 0
-102 -129 0
-102 -132 0
-102 -133 0
-102 -134 0
-102 -135 0
-102 -136 0
-102 -146 0
-102 -421 0
-102 -98 0
-102 -99 0
-103 -104 0
-103 -105 0
-103 -106 0
-103 -107 0
-103 -108 0
-103 -109 0
-103 -110 0
-103 -111 0
-103 -112 0
-103 -113 0
-103 -114 0
-103 -115 0
-103 -116 0
-103 -117 0
-103 -118 0
-103 -119 0
-103 -120 0
-103 -129 0
-103 -131 0
-103 -132 0
-103 -133 0
-103 -134 0
-103 -135 0
-103 -136 0
-103 -146 0
-103 -421 0
-103 -98 0
-103 -99 0
-104 -105 0
-104 -106 0
-104 -107 0
-104 -108 0
-104 -109 0
-104 -110 0
-104 -111 0
-104 -112 0
-104 -113 0
-104 -114 0
-104 -115 0
-104 -116 0
-104 -117 0
-104 -118 0
-104 -119 0
-104 -120 0
-104 -129 0
-104 -132 0
-104 -133 0
-104 -134 0
-104 -135 0
-104 -136 0
-104 -146 0
-104 -421 0
-104 -98 0
-104 -99 0
-105 -106 0
-105 -107 0
-105 -108 0
-105 -109 0
-105 -110 0
-105 -111 0
-105 -112 0
-105 -113 0
-105 -114 0
-105 -115 0
-105 -116 0
-105 -117 0
-105 -118 0
-105 -119 0
-105 -120 0
-105 -129 0
-105 -132 0
-105 -133 0
-105 -134 0
-105 -135 0
-105 -136 0
-105 -137 0
-105 -146 0
-105 -156 0
-105 -421 0
-105 -98 0
-105 -99 0
-106 -107 0
-106 -108 0
-106 -109 0
-106 -110 0
-106 -111 0
-106 -112 0
-106 -113 0
-106 -114 0
-106 -115 0
-106 -116 0
-106 -117 0
-106 -118 0
-106 -119 0
-106 -120 0
-106 -129 0
-106 -131 0
-106 -132 0
-106 -133 0
-106 -134 0
-106 -135 0
-106 -136 0
-106 -137 0
-106 -146 0
-106 -156 0
-106 -421 0
-106 -98 0
-106 -99 0
-107 -108 0
-107 -109 0
-107 -110 0
-107 -111 0
-107 -112 0
-107 -113 0
-107 -114 0
-107 -115 0
-107 -116 0
-107 -117 0
-107 -118 0
-107 -119 0
-107 -120 0
-107 -129 0
-107 -132 0
-107 -133 0
-107 -134 0
-107 -135 0
-107 -136 0
-107 -137 0
-107 -146 0
-107 -156 0
-107 -421 0
-107 -98 0
-107 -99 0
-108 -109 0
-108 -110 0
-108 -111 0
-108 -112 0
-108 -113 0
-108 -114 0
-108 -115 0
-108 -116 0
-108 -117 0
-108 -118 0
-108 -119 0
-108 -120 0
-108 -129 0
-108 -131 0
-108 -132 0
-108 -133 0
-108 -134 0
-108 -135 0
-108 -136 0
-108 -146 0
-108 -421 0
-108 -98 0
-108 -99 0
-109 -110 0
-109 -111 0
-109 -112 0
-109 -113 0
-109 -114 0
-109 -115 0
-109 -116 0
-109 -117 0
-109 -118 0
-109 -119 0
-109 -120 0
-109 -129 0
-109 -132 0
-109 -133 0
-109 -134 0
-109 -135 0
-109 -136 0
-109 -146 0
-109 -421 0
-109 -98 0
-109 -99 0
-11 -3 0
-11 -8 0
-11 -9 0
-110 -111 0
-110 -112 0
-110 -113 0
-110 -114 0
-110 -115 0
-110 -116 0
-110 -117 0
-110 -118 0
-110 -119 0
-110 -120 0
-110 -122 0
-110 -123 0
-110 -129 0
-110 -131 0
-110 -132 0
-110 -133 0
-110 -134 0
-110 -135 0
-110 -136 0
-110 -146 0
-110 -421 0
-110 -98 0
-110 -99 0
-111 -112 0
-111 -113 0
-111 -114 0
-111 -115 0
-111 -116 0
-111 -117 0
-111 -118 0
-111 -119 0
-111 -120 0
-111 -129 0
-111 -131 0
-111 -132 0
-111 -133 0
-111 -134 0
-111 -135 0
-111 -136 0
-111 -146 0
-111 -421 0
-111 -98 0
-111 -99 0
-112 -113 0
-112 -114 0
-112 -115 0
-112 -116 0
-112 -117 0
-112 -118 0
-112 -119 0
-112 -120 0
-112 -129 0
-112 -132 0
-112 -133 0
-112 -134 0
-112 -135 0
-112 -136 0
-112 -146 0
-112 -421 0
-112 -98 0
-112 -99 0
-113 -114 0
-113 -115 0
-113 -116 0
-113 -117 0
-113 -118 0
-113 -119 0
-113 -120 0
-113 -129 0
-113 -132 0
-113 -133 0
-113 -134 0
-113 -135 0
-113 -136 0
-113 -146 0
-113 -421 0
-113 -98 0
-113 -99 0
-114 -115 0
-114 -116 0
-114 -117 0
-114 -118 0
-114 -119 0
-114 -120 0
-114 -129 0
-114 -131 0
-114 -132 0
-114 -133 0
-114 -134 0
-114 -135 0
-114 -136 0
-114 -146 0
-114 -421 0
-114 -98 0
-114 -99 0
-115 -116 0
-115 -117 0
-115 -118 0
-115 -119 0
-115 -120 0
-115 -129 0
-115 -132 0
-115 -133 0
-115 -134 0
-115 -135 0
-115 -136 0
-115 -146 0
-115 -421 0
-115 -98 0
-115 -99 0
-116 -117 0
-116 -118 0
-116 -119 0
-116 -120 0
-116 -129 0
-116 -131 0
-116 -132 0
-116 -133 0
-116 -134 0
-116 -135 0
-116 -136 0
-116 -146 0
-116 -421 0
-116 -98 0
-116 -99 0
-117 -118 0
-117 -119 0
-117 -120 0
-117 -129 0
-117 -131 0
-117 -132 0
-117 -133 0
-117 -134 0
-117 -135 0
-117 -136 0
-117 -146 0
-117 -421 0
-117 -98 0
-117 -99 0
-118 -119 0
-118 -120 0
-118 -129 0
-118 -132 0
-118 -133 0
-118 -134 0
-118 -135 0
-118 -136 0
-118 -146 0
-118 -421 0
-118 -98 0
-118 -99 0
-119 -120 0
-119 -129 0
-119 -131 0
-119 -132 0
-119 -133 0
-119 -134 0
-119 -135 0
-119 -136 0
-119 -146 0
-119 -421 0
-119 -98 0
-119 -99 0
-12 -14 0
-12 -153 0
-12 -17 0
-12 -19 0
-12 -368 0
-12 -372 0
-12 -373 0
-12 -375 0
-12 -380 0
-120 -122 0
-120 -123 0
-120 -129 0
-120 -131 0
-120 -132 0
-120 -133 0
-120 -134 0
-120 -135 0
-120 -136 0
-120 -146 0
-120 -421 0
-120 -98 0
-120 -99 0
-121 -139 0
-121 -140 0
-121 -141 0
-122 -123 0
-122 -144 0
-122 -238 0
-123 -144 0
-123 -238 0
-125 -17 0
-125 -240 0
-129 -132 0
-129 -133 0
-129 -134 0
-129 -135 0
-129 -136 0
-129 -146 0
-129 -421 0
-129 -98 0
-129 -99 0
-130 -239 0
-131 -132 0
-131 -133 0
-131 -134 0
-131 -98 0
-132 -133 0
-132 -134 0
-132 -135 0
-132 -136 0
-132 -146 0
-132 -421 0
-132 -98 0
-132 -99 0
-133 -134 0
-133 -135 0
-133 -136 0
-133 -146 0
-133 -421 0
-133 -98 0
-133 -99 0
-134 -135 0
-134 -136 0
-134 -146 0
-134 -421 0
-134 -98 0
-134 -99 0
-135 -136 0
-135 -146 0
-135 -421 0
-135 -98 0
-135 -99 0
-136 -146 0
-136 -421 0
-136 -98 0
-136 -99 0
-137 -146 0
-137 -156 0
-139 -140 0
-139 -141 0
-14 -17 0
-14 -19 0
-14 -368 0
-14 -372 0
-14 -373 0
-14 -375 0
-14 -380 0
-140 -141 0
-143 -146 0
-146 -156 0
-146 -421 0
-146 -98 0
-146 -99 0
-150 -409 0
-150 -410 0
-165 -166 0
-169 -170 0
-169 -171 0
-169 -176 0
-169 -240 0
-17 -19 0
-17 -368 0
-17 -372 0
-17 -373 0
-17 -375 0
-17 -380 0
-17 -398 0
-17 -90 0
-170 -171 0
-171 -240 0
-173 -175 0
-173 -204 0
-175 -204 0
-176 -240 0
-188 -206 0
-19 -368 0
-19 -372 0
-19 -373 0
-19 -375 0
-19 -380 0
-192 -205 0
-195 -447 0
-199 -447 0
-208 -209 0
-21 -22 0
-21 -23 0
-21 -77 0
-21 -78 0
-21 -79 0
-21 -80 0
-21 -81 0
-21 -82 0
-211 -295 0
-217 -219 0
-219 -368 0
-219 -395 0
-22 -23 0
-22 -77 0
-22 -78 0
-22 -79 0
-22 -80 0
-22 -81 0
-22 -82 0
-221 -222 0
-221 -223 0
-221 -224 0
-221 -232 0
-221 -233 0
-222 -223 0
-222 -224 0
-223 -224 0
-23 -77 0
-23 -78 0
-23 -79 0
-23 -80 0
-23 -81 0
-23 -82 0
-232 -233 0
-25 -26 0
-25 -27 0
-25 -29 0
-25 -30 0
-25 -32 0
-25 -33 0
-25 -34 0
-25 -35 0
-25 -36 0
-25 -39 0
-26 -27 0
-26 -29 0
-26 -30 0
-26 -32 0
-26 -33 0
-26 -34 0
-26 -35 0
-26 -36 0
-26 -39 0
-27 -29 0
-27 -30 0
-27 -32 0
-27 -33 0
-27 -34 0
-27 -35 0
-27 -36 0
-27 -39 0
-29 -30 0
-29 -32 0
-29 -33 0
-29 -34 0
-29 -35 0
-29 -36 0
-29 -39 0
-294 -94 0
-294 -95 0
-3 -8 0
-3 -9 0
-30 -32 0
-30 -33 0
-30 -34 0
-30 -35 0
-30 -36 0
-30 -37 0
-30 -39 0
-307 -308 0
-307 -309 0
-307 -310 0
-307 -312 0
-307 -333 0
-307 -336 0
-308 -309 0
-308 -310 0
-308 -312 0
-308 -333 0
-308 -336 0
-309 -310 0
-309 -312 0
-309 -333 0
-309 -336 0
-310 -312 0
-310 -333 0
-310 -336 0
-312 -333 0
-312 -336 0
-317 -318 0
-317 -319 0
-317 -320 0
-317 -321 0
-317 -322 0
-317 -323 0
-317 -325 0
-317 -326 0
-317 -327 0
-317 -328 0
-317 -329 0
-317 -330 0
-317 -331 0
-317 -332 0
-317 -343 0
-317 -344 0
-317 -345 0
-317 -346 0
-317 -347 0
-317 -349 0
-317 -350 0
-317 -351 0
-317 -352 0
-317 -353 0
-317 -354 0
-317 -355 0
-317 -356 0
-317 -357 0
-318 -319 0
-318 -320 0
-318 -321 0
-318 -322 0
-318 -323 0
-318 -325 0
-318 -326 0
-318 -327 0
-318 -328 0
-318 -329 0
-318 -330 0
-318 -331 0
-318 -332 0
-318 -343 0
-318 -344 0
-318 -345 0
-318 -346 0
-318 -347 0
-318 -349 0
-318 -350 0
-318 -351 0
-318 -352 0
-318 -353 0
-318 -354 0
-318 -355 0
-318 -356 0
-318 -357 0
-319 -320 0
-319 -321 0
-319 -322 0
-319 -323 0
-319 -325 0
-319 -326 0
-319 -327 0
-319 -328 0
-319 -329 0
-319 -330 0
-319 -331 0
-319 -332 0
-319 -343 0
-319 -344 0
-319 -345 0
-319 -346 0
-319 -347 0
-319 -349 0
-319 -350 0
-319 -351 0
-319 -352 0
-319 -353 0
-319 -354 0
-319 -355 0
-319 -356 0
-319 -357 0
-32 -33 0
-32 -34 0
-32 -35 0
-32 -36 0
-32 -39 0
-320 -321 0
-320 -322 0
-320 -323 0
-320 -325 0
-320 -326 0
-320 -327 0
-320 -328 0
-320 -329 0
-320 -330 0
-320 -331 0
-320 -332 0
-320 -343 0
-320 -344 0
-320 -345 0
-320 -346 0
-320 -347 0
-320 -349 0
-320 -350 0
-320 -351 0
-320 -352 0
-320 -353 0
-320 -354 0
-320 -355 0
-320 -356 0
-320 -357 0
-321 -322 0
-321 -323 0
-321 -325 0
-321 -326 0
-321 -327 0
-321 -328 0
-321 -329 0
-321 -330 0
-321 -331 0
-321 -332 0
-321 -343 0
-321 -344 0
-321 -345 0
-321 -346 0
-321 -347 0
-321 -349 0
-321 -350 0
-321 -351 0
-321 -352 0
-321 -353 0
-321 -354 0
-321 -355 0
-321 -356 0
-321 -357 0
-322 -323 0
-322 -325 0
-322 -326 0
-322 -327 0
-322 -328 0
-322 -329 0
-322 -330 0
-322 -331 0
-322 -332 0
-322 -343 0
-322 -344 0
-322 -345 0
-322 -346 0
-322 -347 0
-322 -349 0
-322 -350 0
-322 -351 0
-322 -352 0
-322 -353 0
-322 -354 0
-322 -355 0
-322 -356 0
-322 -357 0
-323 -325 0
-323 -326 0
-323 -327 0
-323 -328 0
-323 -329 0
-323 -330 0
-323 -331 0
-323 -332 0
-323 -343 0
-323 -344 0
-323 -345 0
-323 -346 0
-323 -347 0
-323 -349 0
-323 -350 0
-323 -351 0
-323 -352 0
-323 -353 0
-323 -354 0
-323 -355 0
-323 -356 0
-323 -357 0
-325 -326 0
-325 -327 0
-325 -328 0
-325 -329 0
-325 -330 0
-325 -331 0
-325 -332 0
-325 -343 0
-325 -344 0
-325 -345 0
-325 -346 0
-325 -347 0
-325 -349 0
-325 -350 0
-325 -351 0
-325 -352 0
-325 -353 0
-325 -354 0
-325 -355 0
-325 -356 0
-325 -357 0
-326 -327 0
-326 -328 0
-326 -329 0
-326 -330 0
-326 -331 0
-326 -332 0
-326 -343 0
-326 -344 0
-326 -345 0
-326 -346 0
-326 -347 0
-326 -349 0
-326 -350 0
-326 -351 0
-326 -352 0
-326 -353 0
-326 -354 0
-326 -355 0
-326 -356 0
-326 -357 0
-327 -328 0
-327 -329 0
-327 -330 0
-327 -331 0
-327 -332 0
-327 -343 0
-327 -344 0
-327 -345 0
-327 -346 0
-327 -347 0
-327 -349 0
-327 -350 0
-327 -351 0
-327 -352 0
-327 -353 0
-327 -354 0
-327 -355 0
-327 -356 0
-327 -357 0
-328 -329 0
-328 -330 0
-328 -331 0
-328 -332 0
-328 -343 0
-328 -344 0
-328 -345 0
-328 -346 0
-328 -347 0
-328 -349 0
-328 -350 0
-328 -351 0
-328 -352 0
-328 -353 0
-328 -354 0
-328 -355 0
-328 -356 0
-328 -357 0
-329 -330 0
-329 -331 0
-329 -332 0
-329 -343 0
-329 -344 0
-329 -345 0
-329 -346 0
-329 -347 0
-329 -349 0
-329 -350 0
-329 -351 0
-329 -352 0
-329 -353 0
-329 -354 0
-329 -355 0
-329 -356 0
-329 -357 0
-33 -34 0
-33 -35 0
-33 -36 0
-33 -39 0
-330 -331 0
-330 -332 0
-330 -343 0
-330 -344 0
-330 -345 0
-330 -346 0
-330 -347 0
-330 -349 0
-330 -350 0
-330 -351 0
-330 -352 0
-330 -353 0
-330 -354 0
-330 -355 0
-330 -356 0
-330 -357 0
-331 -332 0
-331 -343 0
-331 -344 0
-331 -345 0
-331 -346 0
-331 -347 0
-331 -349 0
-331 -350 0
-331 -351 0
-331 -352 0
-331 -353 0
-331 -354 0
-331 -355 0
-331 -356 0
-331 -357 0
-332 -343 0
-332 -344 0
-332 -345 0
-332 -346 0
-332 -347 0
-332 -349 0
-332 -350 0
-332 -351 0
-332 -352 0
-332 -353 0
-332 -354 0
-332 -355 0
-332 -356 0
-332 -357 0
-333 -336 0
-34 -35 0
-34 -36 0
-34 -39 0
-343 -344 0
-343 -345 0
-343 -346 0
-343 -347 0
-343 -349 0
-343 -350 0
-343 -351 0
-343 -352 0
-343 -353 0
-343 -354 0
-343 -355 0
-343 -356 0
-343 -357 0
-344 -345 0
-344 -346 0
-344 -347 0
-344 -349 0
-344 -350 0
-344 -351 0
-344 -352 0
-344 -353 0
-344 -354 0
-344 -355 0
-344 -356 0
-344 -357 0
-345 -346 0
-345 -347 0
-345 -349 0
-345 -350 0
-345 -351 0
-345 -352 0
-345 -353 0
-345 -354 0
-345 -355 0
-345 -356 0
-345 -357 0
-346 -347 0
-346 -349 0
-346 -350 0
-346 -351 0
-346 -352 0
-346 -353 0
-346 -354 0
-346 -355 0
-346 -356 0
-346 -357 0
-347 -349 0
-347 -350 0
-347 -351 0
-347 -352 0
-347 -353 0
-347 -354 0
-347 -355 0
-347 -356 0
-347 -357 0
-349 -350 0
-349 -351 0
-349 -352 0
-349 -353 0
-349 -354 0
-349 -355 0
-349 -356 0
-349 -357 0
-35 -36 0
-35 -39 0
-350 -351 0
-350 -352 0
-350 -353 0
-350 -354 0
-350 -355 0
-350 -356 0
-350 -357 0
-351 -352 0
-351 -353 0
-351 -354 0
-351 -355 0
-351 -356 0
-351 -357 0
-352 -353 0
-352 -354 0
-352 -355 0
-352 -356 0
-352 -357 0
-353 -354 0
-353 -355 0
-353 -356 0
-353 -357 0
-354 -355 0
-354 -356 0
-354 -357 0
-355 -356 0
-355 -357 0
-356 -357 0
-359 -360 0
-359 -361 0
-359 -362 0
-359 -363 0
-359 -364 0
-359 -365 0
-359 -366 0
-36 -39 0
-360 -361 0
-360 -362 0
-360 -363 0
-360 -364 0
-360 -365 0
-360 -366 0
-361 -362 0
-361 -363 0
-361 -364 0
-361 -365 0
-361 -366 0
-362 -363 0
-362 -364 0
-362 -365 0
-362 -366 0
-363 -364 0
-363 -365 0
-363 -366 0
-364 -365 0
-364 -366 0
-365 -366 0
-368 -372 0
-368 -373 0
-368 -375 0
-368 -380 0
-372 -373 0
-372 -375 0
-372 -380 0
-373 -375 0
-373 -380 0
-375 -380 0
-384 -385 0
-384 -386 0
-384 -387 0
-384 -421 0
-385 -386 0
-385 -387 0
-385 -421 0
-386 -387 0
-386 -421 0
-387 -421 0
-391 -437 0
-391 -439 0
-4 -5 0
-4 -6 0
-408 -409 0
-408 -410 0
-408 -411 0
-408 -412 0
-408 -413 0
-409 -410 0
-409 -411 0
-409 -412 0
-409 -413 0
-410 -411 0
-410 -412 0
-410 -413 0
-411 -412 0
-411 -413 0
-412 -413 0
-416 -417 0
-421 -98 0
-421 -99 0
-437 -464 0
-457 -458 0
-457 -464 0
-458 -464 0
-5 -6 0
-77 -78 0
-77 -79 0
-77 -80 0
-77 -81 0
-77 -82 0
-78 -79 0
-78 -80 0
-78 -81 0
-78 -82 0
-79 -80 0
-79 -81 0
-79 -82 0
-8 -9 0
-80 -81 0
-80 -82 0
-81 -82 0
-94 -95 0
-98 -99 0
130 239 -127 0
130 239 -205 0
169 170 -162 0
176 240 -78 0
188 206 -202 0
192 205 -127 0
232 233 -208 0
232 233 -209 0
232 233 -210 0
232 233 -215 0
232 233 -223 0
232 233 -224 0
232 233 -225 0
232 233 -234 0
232 233 -236 0
232 233 -307 0
232 233 -308 0
232 233 -309 0
232 233 -310 0
232 233 -328 0
232 233 -329 0
232 233 -332 0
232 233 -333 0
232 233 -336 0
232 233 -400 0
232 233 -447 0
26 35 -103 0
26 35 -104 0
26 35 -105 0
26 35 -106 0
26 35 -107 0
26 35 -11 0
26 35 -110 0
26 35 -117 0
26 35 -118 0
26 35 -119 0
26 35 -123 0
26 35 -137 0
26 35 -155 0
26 35 -156 0
26 35 -181 0
26 35 -240 0
26 35 -241 0
26 35 -242 0
26 35 -265 0
26 35 -3 0
26 35 -457 0
26 35 -458 0
26 35 -80 0
29 33 -116 0
29 33 -134 0
29 33 -8 0
34 39 -133 0
218 -232 -375 0
218 -233 -375 0
368 -131 -143 0
201 202 205 -397 0
25 29 33 -8 0
26 30 35 -137 0
26 30 35 -156 0
26 30 35 -181 0
26 30 35 -240 0
26 30 35 -242 0
29 33 37 -154 0
3 78 82 -240 0
416 417 430 -391 0
416 417 430 -405 0
416 417 430 -406 0
416 417 430 -407 0
416 417 430 -415 0
416 417 430 -441 0
-125 -146 -240 0
121 139 140 141 -205 0
19 233 373 380 -312 0
26 27 35 36 -103 0
26 27 35 36 -104 0
26 27 35 36 -105 0
26 27 35 36 -106 0
26 27 35 36 -107 0
26 27 35 36 -110 0
26 27 35 36 -117 0
26 27 35 36 -118 0
26 27 35 36 -119 0
26 27 35 36 -123 0
26 27 35 36 -155 0
26 27 35 36 -241 0
26 27 35 36 -265 0
26 27 35 36 -457 0
26 27 35 36 -458 0
372 416 417 430 -414 0
19 232 233 373 380 -312 0
22 23 3 78 82 -240 0
26 27 30 35 36 -103 0
26 27 30 35 36 -104 0
26 27 30 35 36 -105 0
26 27 30 35 36 -106 0
26 27 30 35 36 -107 0
26 27 30 35 36 -110 0
26 27 30 35 36 -117 0
26 27 30 35 36 -118 0
26 27 30 35 36 -119 0
26 27 30 35 36 -123 0
26 27 30 35 36 -155 0
26 27 30 35 36 -241 0
26 27 30 35 36 -265 0
26 27 30 35 36 -457 0
26 27 30 35 36 -458 0
103 104 110 117 118 119 -137 0
103 104 110 117 118 119 -156 0
408 409 410 412 413 414 -430 0
359 360 361 362 363 364 365 366 0
25 26 29 33 34 35 39 -184 0
25 26 29 30 33 34 35 39 -184 0
408 409 410 411 412 413 416 417 430 -358 0
102 104 105 107 109 112 113 115 118 129 135 136 -131 0
102 104 105 107 109 112 113 115 118 129 135 136 99 -131 0
11 21 22 23 4 5 6 77 78 79 8 80 81 82 9 -176 0
130 239 -21 -22 -23 -77 -78 -79 -80 -81 -82 0
100 101 102 103 104 105 106 107 108 109 110 114 115 116 117 118 119 120 129 132 133 134 135 136 421 -238 0
100 101 102 103 104 105 106 107 108 109 110 114 115 116 117 118 119 120 129 132 133 134 135 136 421 98 99 -238 0
14 317 318 319 320 321 322 323 324 325 326 327 328 329 330 331 332 343 344 345 346 347 349 350 351 352 353 354 355 356 357 0
100 101 102 103 104 105 106 107 108 109 110 111 112 113 114 115 116 117 118 119 120 129 132 133 134 135 136 146 421 98 99 -138 0
